<number of tasks>
250

<cycle time>
1000

<order strength>
0.596


<task times>
1 358
2 665
3 624
4 531
5 525
6 561
7 632
8 458
9 491
10 577
11 628
12 339
13 496
14 400
15 381
16 432
17 487
18 381
19 597
20 351
21 543
22 657
23 548
24 352
25 568
26 330
27 429
28 523
29 431
30 636
31 535
32 598
33 529
34 595
35 634
36 476
37 283
38 458
39 435
40 642
41 481
42 669
43 609
44 535
45 505
46 437
47 446
48 536
49 409
50 459
51 519
52 489
53 552
54 464
55 364
56 536
57 584
58 698
59 585
60 474
61 450
62 466
63 427
64 338
65 505
66 397
67 269
68 508
69 499
70 487
71 483
72 495
73 519
74 516
75 713
76 464
77 489
78 363
79 493
80 597
81 555
82 479
83 415
84 710
85 355
86 693
87 501
88 596
89 410
90 607
91 445
92 517
93 563
94 394
95 416
96 516
97 464
98 479
99 460
100 686
101 702
102 560
103 579
104 460
105 516
106 731
107 741
108 476
109 539
110 593
111 550
112 647
113 475
114 483
115 582
116 462
117 574
118 661
119 479
120 491
121 571
122 388
123 435
124 711
125 514
126 274
127 412
128 525
129 525
130 625
131 457
132 449
133 453
134 352
135 668
136 493
137 516
138 615
139 468
140 593
141 786
142 735
143 295
144 623
145 496
146 420
147 408
148 290
149 363
150 567
151 451
152 342
153 591
154 424
155 477
156 469
157 484
158 468
159 546
160 461
161 551
162 489
163 552
164 471
165 524
166 313
167 456
168 469
169 554
170 570
171 418
172 391
173 531
174 509
175 589
176 533
177 505
178 500
179 520
180 527
181 507
182 623
183 410
184 280
185 549
186 577
187 700
188 166
189 517
190 538
191 577
192 420
193 572
194 384
195 402
196 451
197 432
198 275
199 620
200 625
201 505
202 536
203 458
204 361
205 562
206 342
207 512
208 623
209 580
210 647
211 599
212 422
213 387
214 662
215 637
216 394
217 801
218 440
219 540
220 355
221 401
222 470
223 501
224 542
225 653
226 285
227 499
228 506
229 542
230 281
231 461
232 559
233 557
234 449
235 503
236 460
237 522
238 679
239 471
240 542
241 570
242 346
243 534
244 442
245 497
246 449
247 555
248 524
249 273
250 441

<precedence relations>
1,167
2,37
3,121
4,38
5,38
6,91
7,74
8,74
9,74
10,227
11,12
11,13
11,14
11,15
11,16
11,17
11,18
11,19
11,20
11,21
11,22
11,23
11,24
11,25
11,26
12,196
13,137
14,37
15,37
16,37
17,192
18,38
19,38
20,38
21,91
22,91
23,91
24,74
25,74
26,27
26,28
26,29
26,30
26,31
26,32
26,33
26,34
26,35
27,137
28,37
29,38
30,38
31,38
32,91
33,211
34,39
34,41
34,67
35,36
35,40
35,72
35,74
36,137
37,42
37,43
37,44
37,45
37,46
37,47
37,48
37,58
37,59
37,60
37,62
38,42
38,49
38,50
38,51
38,52
38,53
38,54
38,55
38,56
38,57
38,87
39,74
40,211
41,133
41,224
42,196
43,63
44,61
44,67
45,61
45,90
45,131
46,90
47,64
47,70
47,104
48,66
48,124
49,61
49,62
49,95
49,131
50,60
50,66
50,107
50,115
52,63
52,91
53,60
53,103
53,136
53,160
54,61
54,88
54,111
54,135
55,91
56,61
56,91
56,105
57,60
57,65
58,91
59,64
59,66
60,167
61,137
62,121
63,74
64,74
65,74
66,211
67,68
67,69
67,70
67,71
67,72
67,73
67,74
67,75
67,76
67,77
68,137
69,192
70,192
71,91
72,91
73,91
74,80
74,81
74,82
74,83
74,84
74,85
74,86
74,101
75,211
76,230
77,78
77,79
77,87
77,88
78,167
79,91
80,89
80,90
81,140
82,114
83,112
83,120
83,134
84,106
84,118
85,119
85,189
85,192
86,92
86,93
86,122
87,89
87,90
87,93
87,123
87,131
88,109
88,136
89,137
90,121
91,94
91,95
91,96
91,97
91,98
91,99
91,101
92,230
93,100
93,115
93,116
94,137
95,121
96,106
96,124
97,102
97,103
97,104
97,108
98,102
98,107
99,104
99,222
100,105
101,102
101,106
102,121
103,192
104,230
105,230
106,109
106,111
106,113
106,115
107,109
107,110
107,112
108,114
109,137
110,121
111,192
112,149
113,116
113,117
113,119
114,118
114,120
115,117
116,167
117,121
118,121
119,211
120,122
120,123
120,124
120,125
121,126
121,127
121,128
121,129
121,130
122,192
123,211
124,132
124,142
124,166
125,126
125,131
125,135
126,137
127,211
128,161
128,169
128,170
129,132
129,133
129,134
129,135
129,136
130,132
130,134
131,136
132,137
133,192
134,149
135,230
136,138
136,139
136,140
136,141
136,142
136,151
136,152
137,143
137,144
137,145
137,146
137,147
137,148
138,192
139,192
140,149
141,149
142,150
143,227
144,151
144,152
144,190
144,224
145,152
145,196
145,202
146,195
146,211
147,185
148,160
149,153
149,154
149,155
149,156
149,157
149,158
149,159
150,161
150,165
151,192
152,192
153,162
155,212
156,162
156,165
156,168
158,163
158,164
158,165
158,166
159,227
160,161
161,167
162,196
163,192
164,192
165,211
166,168
166,169
166,170
167,171
167,172
167,173
167,174
167,175
167,176
167,177
167,178
167,179
167,180
167,181
167,182
167,183
167,184
168,196
169,185
169,214
169,227
172,192
172,193
172,214
173,188
173,194
173,195
174,188
174,189
174,190
176,190
176,220
177,187
177,224
180,222
181,192
181,194
183,186
184,190
186,192
187,192
189,191
189,193
189,194
189,195
191,196
192,197
192,198
192,199
192,200
192,201
192,223
193,227
194,202
194,211
194,214
196,203
196,204
196,205
196,206
196,207
196,208
196,209
197,227
198,210
201,222
201,226
202,222
203,211
204,227
206,212
207,212
207,228
208,236
209,214
210,213
211,215
211,216
211,217
211,218
211,219
211,220
213,225
215,223
216,222
217,224
220,221
220,223
221,230
222,227
223,227
224,225
224,226
224,228
224,229
224,236
225,230
226,230
227,231
227,232
227,233
227,234
227,235
227,236
230,237
230,238
230,239
230,240
230,241
230,242
230,243
230,244
230,245
230,246
230,247
230,248
230,249
230,250

<end>
